c colouring generated by benchmark framework
p edge 1000 449449
v 1 222
v 2 289
v 3 151
v 4 55
v 5 285
v 6 68
v 7 258
v 8 123
v 9 161
v 10 136
v 11 280
v 12 78
v 13 156
v 14 296
v 15 20
v 16 35
v 17 4
v 18 202
v 19 190
v 20 131
v 21 232
v 22 50
v 23 235
v 24 29
v 25 87
v 26 238
v 27 255
v 28 78
v 29 186
v 30 212
v 31 113
v 32 107
v 33 21
v 34 114
v 35 119
v 36 29
v 37 7
v 38 226
v 39 61
v 40 263
v 41 25
v 42 284
v 43 235
v 44 308
v 45 307
v 46 178
v 47 166
v 48 203
v 49 170
v 50 294
v 51 145
v 52 174
v 53 262
v 54 273
v 55 275
v 56 136
v 57 121
v 58 100
v 59 50
v 60 103
v 61 149
v 62 251
v 63 77
v 64 304
v 65 192
v 66 45
v 67 146
v 68 292
v 69 303
v 70 90
v 71 216
v 72 237
v 73 183
v 74 74
v 75 64
v 76 207
v 77 160
v 78 191
v 79 91
v 80 2
v 81 131
v 82 111
v 83 180
v 84 54
v 85 265
v 86 218
v 87 119
v 88 216
v 89 148
v 90 159
v 91 201
v 92 15
v 93 71
v 94 27
v 95 38
v 96 36
v 97 66
v 98 189
v 99 144
v 100 69
v 101 24
v 102 93
v 103 180
v 104 94
v 105 10
v 106 266
v 107 240
v 108 189
v 109 148
v 110 227
v 111 91
v 112 72
v 113 164
v 114 190
v 115 257
v 116 24
v 117 76
v 118 117
v 119 47
v 120 221
v 121 219
v 122 293
v 123 126
v 124 54
v 125 181
v 126 168
v 127 69
v 128 209
v 129 202
v 130 110
v 131 132
v 132 106
v 133 206
v 134 99
v 135 100
v 136 96
v 137 319
v 138 304
v 139 294
v 140 230
v 141 270
v 142 30
v 143 231
v 144 215
v 145 128
v 146 107
v 147 214
v 148 116
v 149 151
v 150 250
v 151 33
v 152 254
v 153 100
v 154 268
v 155 281
v 156 64
v 157 124
v 158 48
v 159 275
v 160 8
v 161 338
v 162 121
v 163 79
v 164 143
v 165 301
v 166 82
v 167 239
v 168 23
v 169 175
v 170 102
v 171 66
v 172 109
v 173 316
v 174 195
v 175 195
v 176 278
v 177 69
v 178 213
v 179 12
v 180 134
v 181 277
v 182 179
v 183 62
v 184 150
v 185 204
v 186 135
v 187 169
v 188 140
v 189 273
v 190 53
v 191 97
v 192 155
v 193 113
v 194 139
v 195 100
v 196 27
v 197 61
v 198 181
v 199 208
v 200 18
v 201 263
v 202 194
v 203 206
v 204 23
v 205 291
v 206 93
v 207 88
v 208 153
v 209 172
v 210 232
v 211 311
v 212 309
v 213 5
v 214 6
v 215 241
v 216 59
v 217 185
v 218 130
v 219 221
v 220 76
v 221 135
v 222 200
v 223 73
v 224 40
v 225 171
v 226 89
v 227 117
v 228 341
v 229 264
v 230 247
v 231 141
v 232 101
v 233 79
v 234 123
v 235 54
v 236 252
v 237 12
v 238 337
v 239 257
v 240 324
v 241 0
v 242 65
v 243 26
v 244 270
v 245 106
v 246 9
v 247 112
v 248 56
v 249 267
v 250 49
v 251 173
v 252 136
v 253 105
v 254 220
v 255 288
v 256 11
v 257 230
v 258 136
v 259 278
v 260 11
v 261 158
v 262 169
v 263 178
v 264 301
v 265 6
v 266 13
v 267 203
v 268 8
v 269 227
v 270 271
v 271 72
v 272 280
v 273 37
v 274 327
v 275 84
v 276 204
v 277 242
v 278 51
v 279 154
v 280 46
v 281 19
v 282 157
v 283 207
v 284 296
v 285 236
v 286 299
v 287 113
v 288 101
v 289 15
v 290 63
v 291 88
v 292 298
v 293 84
v 294 283
v 295 1
v 296 4
v 297 165
v 298 142
v 299 228
v 300 154
v 301 17
v 302 200
v 303 190
v 304 104
v 305 254
v 306 126
v 307 111
v 308 329
v 309 62
v 310 147
v 311 186
v 312 90
v 313 205
v 314 291
v 315 214
v 316 34
v 317 138
v 318 27
v 319 89
v 320 171
v 321 2
v 322 73
v 323 123
v 324 259
v 325 284
v 326 196
v 327 75
v 328 220
v 329 166
v 330 124
v 331 105
v 332 205
v 333 59
v 334 70
v 335 252
v 336 163
v 337 175
v 338 62
v 339 211
v 340 247
v 341 42
v 342 290
v 343 120
v 344 42
v 345 130
v 346 179
v 347 39
v 348 7
v 349 266
v 350 177
v 351 99
v 352 328
v 353 93
v 354 28
v 355 184
v 356 107
v 357 97
v 358 16
v 359 276
v 360 68
v 361 41
v 362 256
v 363 243
v 364 313
v 365 140
v 366 168
v 367 102
v 368 285
v 369 245
v 370 126
v 371 59
v 372 116
v 373 267
v 374 187
v 375 166
v 376 291
v 377 248
v 378 144
v 379 147
v 380 196
v 381 86
v 382 146
v 383 305
v 384 175
v 385 39
v 386 269
v 387 232
v 388 320
v 389 44
v 390 213
v 391 219
v 392 189
v 393 26
v 394 196
v 395 184
v 396 112
v 397 344
v 398 283
v 399 298
v 400 120
v 401 181
v 402 57
v 403 22
v 404 319
v 405 56
v 406 37
v 407 9
v 408 265
v 409 36
v 410 24
v 411 248
v 412 11
v 413 88
v 414 17
v 415 167
v 416 168
v 417 87
v 418 52
v 419 185
v 420 159
v 421 20
v 422 300
v 423 193
v 424 283
v 425 258
v 426 63
v 427 115
v 428 182
v 429 210
v 430 65
v 431 225
v 432 125
v 433 221
v 434 167
v 435 16
v 436 91
v 437 99
v 438 274
v 439 80
v 440 41
v 441 105
v 442 12
v 443 132
v 444 65
v 445 127
v 446 16
v 447 139
v 448 117
v 449 212
v 450 102
v 451 276
v 452 197
v 453 144
v 454 199
v 455 125
v 456 58
v 457 11
v 458 300
v 459 141
v 460 80
v 461 273
v 462 198
v 463 253
v 464 38
v 465 306
v 466 260
v 467 82
v 468 60
v 469 131
v 470 133
v 471 85
v 472 177
v 473 47
v 474 208
v 475 343
v 476 288
v 477 229
v 478 93
v 479 154
v 480 293
v 481 218
v 482 189
v 483 251
v 484 224
v 485 297
v 486 194
v 487 92
v 488 321
v 489 72
v 490 4
v 491 31
v 492 45
v 493 273
v 494 159
v 495 84
v 496 114
v 497 30
v 498 37
v 499 337
v 500 79
v 501 137
v 502 39
v 503 179
v 504 246
v 505 57
v 506 345
v 507 244
v 508 48
v 509 115
v 510 69
v 511 66
v 512 335
v 513 199
v 514 277
v 515 158
v 516 118
v 517 197
v 518 139
v 519 10
v 520 161
v 521 279
v 522 209
v 523 152
v 524 163
v 525 264
v 526 314
v 527 35
v 528 108
v 529 217
v 530 318
v 531 111
v 532 224
v 533 292
v 534 177
v 535 147
v 536 162
v 537 211
v 538 150
v 539 51
v 540 233
v 541 34
v 542 82
v 543 134
v 544 133
v 545 106
v 546 222
v 547 286
v 548 299
v 549 286
v 550 58
v 551 201
v 552 74
v 553 212
v 554 29
v 555 40
v 556 314
v 557 192
v 558 204
v 559 43
v 560 92
v 561 317
v 562 132
v 563 237
v 564 249
v 565 103
v 566 77
v 567 214
v 568 145
v 569 42
v 570 40
v 571 256
v 572 61
v 573 307
v 574 142
v 575 6
v 576 99
v 577 259
v 578 104
v 579 311
v 580 248
v 581 3
v 582 60
v 583 103
v 584 318
v 585 155
v 586 52
v 587 105
v 588 207
v 589 121
v 590 87
v 591 290
v 592 198
v 593 224
v 594 302
v 595 49
v 596 178
v 597 55
v 598 75
v 599 202
v 600 182
v 601 76
v 602 297
v 603 45
v 604 1
v 605 310
v 606 90
v 607 240
v 608 303
v 609 271
v 610 186
v 611 19
v 612 151
v 613 106
v 614 47
v 615 264
v 616 217
v 617 81
v 618 127
v 619 82
v 620 210
v 621 5
v 622 130
v 623 32
v 624 176
v 625 14
v 626 331
v 627 308
v 628 132
v 629 31
v 630 184
v 631 67
v 632 226
v 633 141
v 634 327
v 635 164
v 636 53
v 637 217
v 638 244
v 639 200
v 640 18
v 641 128
v 642 35
v 643 127
v 644 1
v 645 156
v 646 138
v 647 128
v 648 32
v 649 81
v 650 162
v 651 148
v 652 164
v 653 108
v 654 138
v 655 218
v 656 73
v 657 21
v 658 95
v 659 77
v 660 221
v 661 110
v 662 5
v 663 104
v 664 129
v 665 25
v 666 243
v 667 203
v 668 199
v 669 183
v 670 125
v 671 233
v 672 341
v 673 239
v 674 65
v 675 30
v 676 0
v 677 53
v 678 272
v 679 112
v 680 254
v 681 62
v 682 228
v 683 31
v 684 188
v 685 176
v 686 97
v 687 57
v 688 253
v 689 243
v 690 80
v 691 39
v 692 334
v 693 41
v 694 20
v 695 85
v 696 143
v 697 266
v 698 173
v 699 101
v 700 193
v 701 130
v 702 160
v 703 317
v 704 309
v 705 22
v 706 127
v 707 16
v 708 185
v 709 120
v 710 2
v 711 112
v 712 231
v 713 192
v 714 140
v 715 48
v 716 3
v 717 13
v 718 33
v 719 322
v 720 50
v 721 272
v 722 67
v 723 44
v 724 23
v 725 43
v 726 58
v 727 323
v 728 296
v 729 147
v 730 195
v 731 250
v 732 153
v 733 137
v 734 205
v 735 74
v 736 170
v 737 237
v 738 64
v 739 330
v 740 151
v 741 320
v 742 70
v 743 176
v 744 124
v 745 28
v 746 309
v 747 191
v 748 92
v 749 174
v 750 141
v 751 231
v 752 274
v 753 324
v 754 295
v 755 38
v 756 163
v 757 17
v 758 10
v 759 110
v 760 281
v 761 122
v 762 83
v 763 26
v 764 83
v 765 236
v 766 225
v 767 272
v 768 25
v 769 255
v 770 123
v 771 234
v 772 6
v 773 219
v 774 222
v 775 165
v 776 109
v 777 305
v 778 55
v 779 121
v 780 24
v 781 153
v 782 28
v 783 83
v 784 133
v 785 156
v 786 168
v 787 198
v 788 21
v 789 255
v 790 215
v 791 229
v 792 109
v 793 194
v 794 70
v 795 98
v 796 120
v 797 122
v 798 279
v 799 8
v 800 302
v 801 118
v 802 94
v 803 67
v 804 215
v 805 114
v 806 233
v 807 152
v 808 74
v 809 45
v 810 295
v 811 287
v 812 249
v 813 96
v 814 223
v 815 145
v 816 60
v 817 43
v 818 89
v 819 135
v 820 174
v 821 49
v 822 246
v 823 22
v 824 261
v 825 210
v 826 46
v 827 160
v 828 228
v 829 223
v 830 68
v 831 126
v 832 149
v 833 195
v 834 142
v 835 158
v 836 241
v 837 40
v 838 245
v 839 98
v 840 325
v 841 131
v 842 68
v 843 263
v 844 211
v 845 336
v 846 7
v 847 188
v 848 333
v 849 277
v 850 12
v 851 282
v 852 289
v 853 85
v 854 256
v 855 287
v 856 32
v 857 81
v 858 86
v 859 117
v 860 292
v 861 339
v 862 167
v 863 326
v 864 174
v 865 102
v 866 172
v 867 246
v 868 234
v 869 288
v 870 272
v 871 10
v 872 187
v 873 306
v 874 239
v 875 260
v 876 14
v 877 138
v 878 56
v 879 271
v 880 229
v 881 213
v 882 268
v 883 180
v 884 1
v 885 191
v 886 223
v 887 95
v 888 216
v 889 182
v 890 114
v 891 264
v 892 146
v 893 30
v 894 113
v 895 18
v 896 104
v 897 270
v 898 108
v 899 259
v 900 3
v 901 41
v 902 59
v 903 75
v 904 122
v 905 282
v 906 71
v 907 241
v 908 227
v 909 162
v 910 103
v 911 323
v 912 284
v 913 187
v 914 116
v 915 98
v 916 252
v 917 9
v 918 171
v 919 188
v 920 290
v 921 86
v 922 96
v 923 284
v 924 165
v 925 315
v 926 225
v 927 161
v 928 150
v 929 242
v 930 75
v 931 94
v 932 202
v 933 36
v 934 78
v 935 157
v 936 44
v 937 71
v 938 250
v 939 274
v 940 13
v 941 321
v 942 247
v 943 63
v 944 55
v 945 46
v 946 95
v 947 157
v 948 19
v 949 129
v 950 261
v 951 34
v 952 119
v 953 51
v 954 318
v 955 155
v 956 240
v 957 193
v 958 32
v 959 35
v 960 220
v 961 234
v 962 67
v 963 129
v 964 178
v 965 269
v 966 2
v 967 77
v 968 206
v 969 310
v 970 340
v 971 149
v 972 15
v 973 73
v 974 183
v 975 197
v 976 226
v 977 183
v 978 262
v 979 261
v 980 242
v 981 313
v 982 312
v 983 201
v 984 209
v 985 169
v 986 308
v 987 52
v 988 258
v 989 118
v 990 109
v 991 152
v 992 238
v 993 172
v 994 14
v 995 20
v 996 177
v 997 332
v 998 137
v 999 33
v 1000 0
